
Gurobi 7.0.2 (linux64, Python) logging started Fri Apr 21 19:26:40 2017


Gurobi 7.0.2 (linux64, Python) logging started Fri Apr 21 19:36:14 2017


Gurobi 7.0.2 (linux64, Python) logging started Fri Apr 21 19:37:03 2017


Gurobi 7.0.2 (linux64, Python) logging started Fri Apr 21 20:00:02 2017


Gurobi 7.0.2 (linux64, Python) logging started Fri Apr 21 20:45:25 2017


Gurobi 7.0.2 (linux64, Python) logging started Fri May  5 09:22:55 2017


Gurobi 7.0.2 (linux64, Python) logging started Fri May  5 09:32:23 2017


Gurobi 7.0.2 (linux64, Python) logging started Fri May  5 09:33:16 2017


Gurobi 7.0.2 (linux64, Python) logging started Fri May  5 09:55:55 2017


Gurobi 7.0.2 (linux64, Python) logging started Fri May  5 10:41:38 2017


Gurobi 7.0.2 (linux64, Python) logging started Fri May  5 11:10:28 2017


Gurobi 7.0.2 (linux64, Python) logging started Fri May  5 11:13:53 2017


Gurobi 7.0.2 (linux64, Python) logging started Tue Feb  6 20:51:21 2018


Gurobi 7.0.2 (linux64, Python) logging started Tue Feb  6 22:25:15 2018


Gurobi 7.0.2 (linux64, Python) logging started Fri Jun  8 12:56:12 2018


Gurobi 7.0.2 (linux64, Python) logging started Fri Jun  8 12:57:09 2018


Gurobi 7.0.2 (linux64, Python) logging started Fri Jun  8 12:57:50 2018


Gurobi 7.0.2 (linux64, Python) logging started Fri Jun  8 12:59:16 2018


Gurobi 7.0.2 (linux64, Python) logging started Fri Jun  8 13:02:57 2018


Gurobi 7.0.2 (linux64, Python) logging started Fri Jun  8 13:13:12 2018


Gurobi 7.0.2 (linux64, Python) logging started Fri Jun  8 14:22:12 2018


Gurobi 7.0.2 (linux64, Python) logging started Fri Jun  8 15:23:42 2018


Gurobi 7.0.2 (linux64, Python) logging started Fri Jun  8 16:35:51 2018


Gurobi 7.0.2 (linux64, Python) logging started Mon Jun 11 14:14:04 2018


Gurobi 7.0.2 (linux64, Python) logging started Mon Jun 11 14:52:31 2018

